Route #1: 8 10 24 12
Route #2: 17 19 30 20 33 22 7 14
Route #3: 18 6 41 29 40 25 27 15 3 37
Route #4: 36 28 32 44 34 16 21
Route #5: 38 42 9 23 43 31 35
Route #6: 26 4 13 2
Route #7: 11 39 5
cost 1023
